21
-3 -1 6185 4
6 6 9992 6
-5 -3 3070 3
-3 1 5190 3
2 1 690 8
0 -4 995 6
4 -1 593 6
-4 5 820 10
2 2 1505 0
6 1 7758 10
-6 -4 4640 8
-2 -4 4516 5
-2 4 8554 9
-4 5 8567 5
1 -5 5064 10
-4 -4 9090 0
4 5 6543 4
-1 6 4676 1
4 -4 7891 5
4 4 2156 4
-4 3 1474 10
